DIMACS2
40 49 64 3 214 37 281 301 132 82 141 128 276 161 135 98 94 267 147 275 134 224 56 169 256 97 72 15 255 39 242 194 89 124 151 225 201 312 106 236 260
p edge 320 1213
e 0 302 1.0
e 1 314 1.0
e 1 96 1.0
e 1 82 44.0
e 2 155 1.0
e 2 0 1.0
e 3 35 44.0
e 3 188 1.0
e 3 24 19.0
e 3 299 25.0
e 3 236 13.0
e 3 76 39.0
e 3 13 1.0
e 3 177 22.0
e 3 161 21.0
e 3 42 47.0
e 3 311 25.0
e 3 296 30.0
e 3 58 32.0
e 3 249 29.0
e 3 209 37.0
e 3 64 2.0
e 3 272 46.0
e 3 130 30.0
e 3 114 21.0
e 3 127 18.0
e 3 8 16.0
e 3 73 24.0
e 3 166 15.0
e 3 92 6.0
e 3 175 39.0
e 4 290 1.0
e 5 35 1.0
e 5 162 11.0
e 6 33 1.0
e 7 119 2.0
e 8 312 8.0
e 9 68 1.0
e 10 147 23.0
e 11 198 1.0
e 12 211 1.0
e 13 313 3.0
e 14 56 38.0
e 15 14 10.0
e 15 16 47.0
e 15 81 36.0
e 15 121 39.0
e 15 294 42.0
e 15 135 20.0
e 15 193 23.0
e 15 147 17.0
e 15 162 17.0
e 15 173 21.0
e 15 307 21.0
e 15 36 23.0
e 15 26 48.0
e 15 43 17.0
e 15 32 42.0
e 15 266 28.0
e 15 172 40.0
e 15 69 40.0
e 15 66 36.0
e 15 254 23.0
e 15 220 46.0
e 15 259 45.0
e 15 204 12.0
e 15 208 19.0
e 15 21 24.0
e 16 130 1.0
e 17 238 1.0
e 18 50 2.0
e 18 292 2.0
e 19 27 1.0
e 19 133 1.0
e 20 187 1.0
e 21 178 1.0
e 22 31 1.0
e 23 44 1.0
e 24 178 1.0
e 25 126 2.0
e 26 305 2.0
e 27 293 1.0
e 28 201 36.0
e 28 199 4.0
e 28 215 4.0
e 29 245 3.0
e 30 249 1.0
e 31 87 1.0
e 32 223 1.0
e 33 316 2.0
e 34 75 1.0
e 35 100 3.0
e 36 134 26.0
e 36 237 2.0
e 36 282 15.0
e 36 160 22.0
e 36 177 20.0
e 36 316 23.0
e 36 283 4.0
e 36 37 26.0
e 36 185 5.0
e 36 265 22.0
e 36 318 4.0
e 36 172 8.0
e 37 195 22.0
e 37 63 1.0
e 37 313 34.0
e 37 183 41.0
e 37 53 42.0
e 37 259 43.0
e 37 267 43.0
e 37 2 38.0
e 37 178 15.0
e 37 209 13.0
e 37 4 18.0
e 37 263 7.0
e 37 246 45.0
e 37 3 22.0
e 37 204 17.0
e 37 198 44.0
e 37 96 17.0
e 37 6 35.0
e 37 217 34.0
e 37 39 6.0
e 37 272 40.0
e 37 305 17.0
e 37 240 27.0
e 38 111 2.0
e 39 147 14.0
e 39 197 28.0
e 39 22 38.0
e 39 33 30.0
e 39 51 45.0
e 39 205 39.0
e 39 154 18.0
e 39 84 8.0
e 39 217 24.0
e 39 182 8.0
e 39 135 46.0
e 39 251 45.0
e 39 275 33.0
e 39 180 23.0
e 39 23 5.0
e 39 64 47.0
e 39 194 4.0
e 39 200 4.0
e 39 1 41.0
e 39 291 9.0
e 39 156 32.0
e 39 264 1.0
e 39 16 34.0
e 39 48 25.0
e 40 136 2.0
e 41 164 1.0
e 42 191 2.0
e 43 176 1.0
e 44 180 1.0
e 45 148 3.0
e 46 280 5.0
e 46 80 5.0
e 47 77 2.0
e 48 81 1.0
e 49 46 10.0
e 49 56 20.0
e 49 95 34.0
e 49 113 32.0
e 49 293 11.0
e 49 161 2.0
e 49 84 15.0
e 49 129 3.0
e 49 114 46.0
e 49 274 5.0
e 49 259 31.0
e 49 97 24.0
e 49 109 11.0
e 49 48 27.0
e 49 30 36.0
e 49 67 4.0
e 49 212 26.0
e 49 214 33.0
e 49 77 21.0
e 49 216 43.0
e 49 42 48.0
e 49 278 42.0
e 49 130 25.0
e 49 279 42.0
e 50 247 1.0
e 51 45 1.0
e 52 165 1.0
e 53 252 1.0
e 54 119 1.0
e 55 79 1.0
e 56 302 49.0
e 56 119 10.0
e 56 116 4.0
e 56 51 9.0
e 56 292 49.0
e 56 240 38.0
e 56 103 17.0
e 56 48 16.0
e 56 145 2.0
e 56 306 35.0
e 56 52 35.0
e 56 89 6.0
e 56 259 42.0
e 56 129 5.0
e 56 305 22.0
e 56 117 22.0
e 56 290 12.0
e 56 112 43.0
e 56 270 13.0
e 56 53 33.0
e 56 95 47.0
e 56 58 12.0
e 56 283 44.0
e 57 297 1.0
e 58 183 2.0
e 59 25 1.0
e 60 57 1.0
e 61 129 1.0
e 62 225 16.0
e 63 31 2.0
e 64 284 28.0
e 64 51 14.0
e 64 302 26.0
e 64 90 31.0
e 64 103 21.0
e 64 210 14.0
e 64 278 5.0
e 64 68 22.0
e 64 166 28.0
e 64 133 34.0
e 64 172 22.0
e 64 173 21.0
e 64 40 20.0
e 64 193 40.0
e 64 125 14.0
e 64 74 44.0
e 64 156 25.0
e 64 205 37.0
e 64 283 1.0
e 64 77 32.0
e 64 184 17.0
e 64 211 10.0
e 64 118 18.0
e 65 40 1.0
e 66 187 1.0
e 67 44 1.0
e 68 199 1.0
e 69 52 1.0
e 70 146 1.0
e 71 241 1.0
e 72 38 27.0
e 72 280 13.0
e 72 138 41.0
e 72 88 38.0
e 72 70 38.0
e 72 241 32.0
e 72 116 47.0
e 72 239 31.0
e 72 202 41.0
e 72 85 41.0
e 72 213 17.0
e 72 260 22.0
e 72 262 13.0
e 72 298 11.0
e 72 266 44.0
e 72 106 7.0
e 72 31 6.0
e 72 255 31.0
e 72 197 24.0
e 72 306 13.0
e 72 91 28.0
e 72 299 16.0
e 72 55 6.0
e 72 109 29.0
e 72 209 25.0
e 73 54 1.0
e 74 220 1.0
e 75 179 1.0
e 76 217 1.0
e 77 177 1.0
e 78 189 1.0
e 79 34 1.0
e 80 54 2.0
e 81 179 1.0
e 82 107 19.0
e 82 313 48.0
e 82 266 8.0
e 82 236 42.0
e 82 52 19.0
e 82 251 46.0
e 82 37 30.0
e 82 132 37.0
e 82 176 33.0
e 82 102 31.0
e 82 167 5.0
e 82 249 34.0
e 82 277 34.0
e 82 284 5.0
e 82 147 33.0
e 82 288 8.0
e 82 103 45.0
e 82 31 23.0
e 82 109 9.0
e 82 62 41.0
e 82 194 24.0
e 82 106 43.0
e 83 118 2.0
e 84 290 2.0
e 85 32 1.0
e 86 206 1.0
e 87 206 1.0
e 88 103 8.0
e 89 139 18.0
e 89 241 39.0
e 89 135 40.0
e 89 284 43.0
e 89 100 1.0
e 89 150 18.0
e 89 210 21.0
e 89 42 39.0
e 89 257 40.0
e 89 312 38.0
e 89 248 31.0
e 89 292 5.0
e 89 126 3.0
e 89 86 17.0
e 89 97 12.0
e 89 9 3.0
e 89 221 46.0
e 89 48 19.0
e 89 21 33.0
e 89 72 16.0
e 89 122 38.0
e 89 183 22.0
e 89 133 41.0
e 90 158 1.0
e 91 166 2.0
e 92 79 1.0
e 93 180 1.0
e 94 172 8.0
e 94 223 27.0
e 94 14 15.0
e 94 219 4.0
e 94 169 7.0
e 94 233 23.0
e 94 15 6.0
e 94 165 11.0
e 94 240 1.0
e 94 280 1.0
e 94 191 1.0
e 94 213 38.0
e 94 272 40.0
e 94 142 40.0
e 94 57 15.0
e 94 227 44.0
e 94 161 33.0
e 94 22 11.0
e 94 95 11.0
e 94 173 2.0
e 94 311 30.0
e 94 9 45.0
e 94 82 23.0
e 94 246 38.0
e 95 79 1.0
e 96 146 1.0
e 97 109 20.0
e 97 111 33.0
e 97 106 33.0
e 97 203 36.0
e 97 78 46.0
e 97 26 34.0
e 97 51 39.0
e 97 305 48.0
e 97 36 43.0
e 97 98 25.0
e 97 99 21.0
e 97 101 23.0
e 97 42 40.0
e 97 73 20.0
e 97 47 20.0
e 97 168 3.0
e 97 249 37.0
e 97 22 32.0
e 97 312 21.0
e 97 0 5.0
e 97 206 6.0
e 97 210 23.0
e 97 259 34.0
e 98 257 10.0
e 98 231 22.0
e 98 284 47.0
e 98 93 46.0
e 98 206 13.0
e 98 232 18.0
e 98 313 35.0
e 98 7 5.0
e 98 54 3.0
e 98 261 33.0
e 98 163 39.0
e 98 265 5.0
e 98 100 32.0
e 98 190 43.0
e 98 287 15.0
e 98 164 27.0
e 98 27 11.0
e 98 72 13.0
e 98 79 14.0
e 98 13 48.0
e 98 249 25.0
e 98 12 34.0
e 98 183 49.0
e 99 245 1.0
e 100 120 1.0
e 101 112 1.0
e 102 105 1.0
e 103 98 15.0
e 103 225 28.0
e 103 161 33.0
e 104 137 1.0
e 105 81 1.0
e 106 101 31.0
e 106 66 13.0
e 106 109 4.0
e 106 271 26.0
e 106 293 28.0
e 106 21 30.0
e 106 189 20.0
e 106 234 47.0
e 106 253 10.0
e 106 90 6.0
e 106 241 39.0
e 106 152 27.0
e 106 116 15.0
e 106 111 3.0
e 106 96 42.0
e 106 225 41.0
e 106 184 25.0
e 106 173 2.0
e 106 179 2.0
e 106 126 25.0
e 106 294 45.0
e 107 67 2.0
e 108 263 2.0
e 109 238 1.0
e 110 67 1.0
e 110 68 2.0
e 111 84 1.0
e 112 75 1.0
e 113 188 2.0
e 114 63 1.0
e 115 281 13.0
e 116 12 1.0
e 117 79 1.0
e 118 314 1.0
e 119 313 2.0
e 120 22 1.0
e 121 219 1.0
e 122 65 2.0
e 123 29 2.0
e 123 131 4.0
e 123 135 31.0
e 124 178 29.0
e 124 50 3.0
e 124 286 45.0
e 124 238 42.0
e 124 193 41.0
e 124 2 33.0
e 124 110 14.0
e 124 133 1.0
e 124 144 30.0
e 124 145 13.0
e 124 11 8.0
e 124 263 48.0
e 124 234 4.0
e 124 147 15.0
e 124 115 48.0
e 124 61 46.0
e 124 309 21.0
e 124 183 32.0
e 124 68 19.0
e 124 312 25.0
e 124 179 16.0
e 124 315 28.0
e 124 56 34.0
e 124 242 40.0
e 125 170 2.0
e 126 10 1.0
e 127 62 1.0
e 128 188 9.0
e 128 191 28.0
e 128 169 13.0
e 128 302 26.0
e 128 28 28.0
e 128 13 46.0
e 128 119 29.0
e 128 102 36.0
e 128 292 20.0
e 128 42 18.0
e 128 297 11.0
e 128 59 22.0
e 128 134 49.0
e 128 227 22.0
e 128 92 28.0
e 128 127 11.0
e 128 262 42.0
e 128 137 28.0
e 128 279 21.0
e 128 216 44.0
e 128 139 4.0
e 128 120 46.0
e 129 217 1.0
e 130 291 1.0
e 131 73 1.0
e 132 160 29.0
e 132 248 34.0
e 132 287 12.0
e 132 250 31.0
e 132 271 34.0
e 132 227 41.0
e 132 148 9.0
e 132 284 13.0
e 132 175 35.0
e 132 94 15.0
e 132 7 18.0
e 132 229 10.0
e 132 257 15.0
e 132 42 21.0
e 132 117 31.0
e 132 262 2.0
e 132 110 10.0
e 132 49 27.0
e 132 159 16.0
e 132 309 13.0
e 132 314 29.0
e 132 239 23.0
e 132 4 42.0
e 132 260 11.0
e 133 90 1.0
e 134 123 10.0
e 134 162 2.0
e 134 66 19.0
e 134 117 45.0
e 134 285 20.0
e 134 96 32.0
e 134 163 22.0
e 134 26 37.0
e 134 5 27.0
e 134 186 41.0
e 134 3 46.0
e 134 83 13.0
e 134 43 27.0
e 134 240 3.0
e 134 152 45.0
e 134 233 18.0
e 134 127 43.0
e 134 215 11.0
e 134 33 42.0
e 134 187 49.0
e 134 151 13.0
e 134 149 47.0
e 134 296 18.0
e 135 239 30.0
e 135 163 5.0
e 135 85 28.0
e 135 222 28.0
e 135 160 43.0
e 135 147 18.0
e 135 300 16.0
e 135 86 21.0
e 135 301 38.0
e 135 215 1.0
e 135 197 30.0
e 135 13 46.0
e 135 242 2.0
e 135 23 40.0
e 135 136 14.0
e 135 216 33.0
e 135 299 42.0
e 135 260 19.0
e 135 26 32.0
e 136 139 1.0
e 137 283 1.0
e 138 125 1.0
e 139 195 1.0
e 140 315 1.0
e 140 136 1.0
e 141 292 7.0
e 141 13 49.0
e 141 235 7.0
e 141 65 34.0
e 141 218 29.0
e 141 92 24.0
e 141 260 9.0
e 141 267 19.0
e 141 19 11.0
e 141 237 17.0
e 141 26 23.0
e 141 162 27.0
e 141 184 37.0
e 141 213 33.0
e 141 202 23.0
e 141 179 20.0
e 141 14 3.0
e 141 110 35.0
e 141 29 13.0
e 141 192 18.0
e 141 189 47.0
e 141 151 37.0
e 141 88 19.0
e 141 304 28.0
e 141 219 46.0
e 142 84 1.0
e 143 70 1.0
e 144 120 1.0
e 145 238 1.0
e 146 152 1.0
e 147 296 26.0
e 147 242 23.0
e 147 11 26.0
e 147 108 10.0
e 147 187 48.0
e 147 2 22.0
e 147 55 36.0
e 147 246 32.0
e 147 132 1.0
e 147 60 33.0
e 147 120 13.0
e 147 250 46.0
e 147 119 17.0
e 147 148 1.0
e 147 188 34.0
e 147 216 22.0
e 148 120 1.0
e 149 38 1.0
e 150 23 1.0
e 151 111 17.0
e 151 27 32.0
e 151 242 24.0
e 151 73 47.0
e 151 245 7.0
e 151 277 17.0
e 151 96 10.0
e 151 246 48.0
e 151 147 8.0
e 151 99 43.0
e 151 30 33.0
e 151 110 7.0
e 151 176 45.0
e 151 160 11.0
e 151 130 32.0
e 151 124 1.0
e 151 247 27.0
e 151 148 47.0
e 151 266 40.0
e 151 294 8.0
e 151 118 39.0
e 151 317 34.0
e 152 83 1.0
e 153 311 1.0
e 154 252 1.0
e 155 27 2.0
e 156 289 1.0
e 157 258 2.0
e 158 43 1.0
e 159 90 3.0
e 160 75 1.0
e 160 123 7.0
e 161 65 20.0
e 161 16 23.0
e 161 145 23.0
e 161 303 22.0
e 161 27 5.0
e 161 58 39.0
e 161 111 39.0
e 161 64 17.0
e 161 224 6.0
e 161 264 35.0
e 161 74 41.0
e 161 1 16.0
e 161 243 28.0
e 161 159 7.0
e 161 121 23.0
e 161 17 2.0
e 161 116 16.0
e 161 310 35.0
e 161 170 45.0
e 161 114 41.0
e 161 67 30.0
e 162 201 8.0
e 162 41 5.0
e 162 260 37.0
e 163 228 1.0
e 164 12 1.0
e 165 128 21.0
e 166 82 13.0
e 167 135 45.0
e 168 150 1.0
e 169 139 43.0
e 169 260 29.0
e 169 244 45.0
e 169 43 11.0
e 169 157 11.0
e 169 270 23.0
e 169 133 48.0
e 169 1 19.0
e 169 138 23.0
e 169 256 10.0
e 169 242 41.0
e 169 200 43.0
e 169 182 1.0
e 169 178 31.0
e 169 164 44.0
e 169 268 15.0
e 169 314 36.0
e 169 39 22.0
e 169 97 31.0
e 169 304 30.0
e 169 44 5.0
e 169 180 8.0
e 170 147 27.0
e 171 172 1.0
e 172 214 34.0
e 173 146 1.0
e 174 164 1.0
e 175 62 1.0
e 176 293 3.0
e 177 187 2.0
e 178 115 1.0
e 179 178 1.0
e 180 157 1.0
e 181 169 40.0
e 181 164 2.0
e 182 238 1.0
e 183 128 21.0
e 184 108 1.0
e 185 182 1.0
e 186 280 2.0
e 187 287 1.0
e 188 278 1.0
e 189 297 1.0
e 190 99 1.0
e 191 261 1.0
e 192 144 1.0
e 193 218 1.0
e 194 234 19.0
e 194 8 33.0
e 194 305 20.0
e 194 37 34.0
e 194 98 15.0
e 194 93 43.0
e 194 188 23.0
e 194 182 10.0
e 194 90 43.0
e 194 118 43.0
e 194 91 12.0
e 194 286 38.0
e 194 295 1.0
e 194 145 9.0
e 194 103 31.0
e 194 76 29.0
e 194 74 5.0
e 194 318 24.0
e 194 85 4.0
e 194 293 3.0
e 194 281 17.0
e 194 33 30.0
e 195 124 16.0
e 196 272 1.0
e 197 233 1.0
e 198 281 6.0
e 199 209 3.0
e 200 267 21.0
e 201 218 25.0
e 201 253 43.0
e 201 223 10.0
e 201 233 20.0
e 201 71 19.0
e 201 232 36.0
e 201 9 8.0
e 201 230 42.0
e 201 105 8.0
e 201 284 4.0
e 201 83 49.0
e 201 154 37.0
e 201 245 24.0
e 201 267 10.0
e 201 188 27.0
e 201 291 38.0
e 201 220 43.0
e 201 183 32.0
e 201 221 23.0
e 201 275 13.0
e 201 139 3.0
e 201 106 11.0
e 201 317 41.0
e 202 146 1.0
e 203 41 1.0
e 204 67 1.0
e 205 90 1.0
e 206 296 1.0
e 207 290 1.0
e 208 317 1.0
e 209 154 9.0
e 209 239 5.0
e 210 52 2.0
e 211 230 1.0
e 212 299 1.0
e 213 207 1.0
e 214 304 9.0
e 214 267 49.0
e 214 285 17.0
e 214 175 42.0
e 214 52 48.0
e 214 317 34.0
e 214 227 32.0
e 214 288 13.0
e 214 315 24.0
e 214 86 44.0
e 214 242 37.0
e 214 215 23.0
e 214 25 17.0
e 214 155 49.0
e 214 100 39.0
e 214 62 46.0
e 214 41 12.0
e 214 163 25.0
e 214 140 16.0
e 214 74 26.0
e 214 309 37.0
e 214 7 48.0
e 214 147 9.0
e 215 109 1.0
e 216 258 2.0
e 217 12 1.0
e 218 271 2.0
e 219 82 27.0
e 220 8 1.0
e 221 23 1.0
e 222 48 1.0
e 223 12 2.0
e 224 142 3.0
e 224 205 13.0
e 224 294 8.0
e 224 236 19.0
e 224 10 35.0
e 224 199 39.0
e 224 165 17.0
e 224 213 36.0
e 224 91 6.0
e 224 262 32.0
e 224 166 37.0
e 224 69 17.0
e 224 72 21.0
e 224 134 20.0
e 224 204 29.0
e 224 6 41.0
e 224 200 20.0
e 224 279 27.0
e 224 308 36.0
e 224 144 17.0
e 224 260 37.0
e 224 152 43.0
e 224 250 3.0
e 225 209 16.0
e 225 81 40.0
e 225 134 19.0
e 225 47 7.0
e 225 256 46.0
e 225 308 15.0
e 225 291 33.0
e 225 145 10.0
e 225 220 40.0
e 225 153 41.0
e 225 311 34.0
e 225 14 32.0
e 225 250 23.0
e 225 198 41.0
e 225 150 49.0
e 225 136 35.0
e 225 92 36.0
e 225 314 41.0
e 225 228 18.0
e 225 68 38.0
e 225 0 18.0
e 225 107 7.0
e 226 30 1.0
e 227 270 1.0
e 228 119 1.0
e 229 105 1.0
e 230 283 1.0
e 231 152 1.0
e 232 47 1.0
e 233 249 1.0
e 234 30 1.0
e 235 17 1.0
e 236 168 3.0
e 236 105 48.0
e 236 87 6.0
e 236 220 26.0
e 236 128 8.0
e 236 39 26.0
e 236 27 29.0
e 236 295 7.0
e 236 316 29.0
e 236 195 42.0
e 236 233 13.0
e 236 4 37.0
e 236 5 42.0
e 236 279 35.0
e 236 69 5.0
e 236 129 39.0
e 236 255 17.0
e 236 1 30.0
e 236 180 5.0
e 236 197 8.0
e 236 117 23.0
e 236 53 21.0
e 237 254 1.0
e 238 75 1.0
e 239 295 3.0
e 240 271 1.0
e 241 227 1.0
e 242 302 16.0
e 242 209 7.0
e 242 98 43.0
e 242 266 29.0
e 242 45 30.0
e 242 215 24.0
e 242 117 22.0
e 242 197 39.0
e 242 191 43.0
e 242 118 35.0
e 242 312 43.0
e 242 297 4.0
e 242 272 26.0
e 242 315 18.0
e 242 168 44.0
e 242 244 20.0
e 242 226 42.0
e 242 126 48.0
e 242 78 37.0
e 243 170 1.0
e 244 160 3.0
e 245 303 1.0
e 246 165 2.0
e 247 28 1.0
e 248 267 3.0
e 249 93 1.0
e 250 194 35.0
e 251 245 1.0
e 252 277 1.0
e 253 77 1.0
e 254 151 33.0
e 254 14 7.0
e 254 127 11.0
e 254 76 9.0
e 254 153 1.0
e 255 77 12.0
e 255 113 32.0
e 255 147 44.0
e 255 74 5.0
e 255 239 42.0
e 255 198 25.0
e 255 258 26.0
e 255 7 33.0
e 255 190 39.0
e 255 31 33.0
e 255 234 14.0
e 255 163 2.0
e 255 226 3.0
e 255 295 4.0
e 255 260 24.0
e 255 93 7.0
e 255 158 18.0
e 255 63 31.0
e 255 195 41.0
e 255 267 37.0
e 255 61 48.0
e 255 24 24.0
e 255 303 30.0
e 256 135 23.0
e 256 122 37.0
e 256 161 11.0
e 256 263 28.0
e 256 155 2.0
e 256 239 8.0
e 256 186 6.0
e 256 91 32.0
e 256 182 21.0
e 256 89 22.0
e 256 301 24.0
e 256 15 34.0
e 256 98 29.0
e 256 92 36.0
e 256 181 18.0
e 256 121 33.0
e 256 130 25.0
e 256 170 43.0
e 256 184 19.0
e 256 93 14.0
e 256 226 41.0
e 256 0 46.0
e 256 196 11.0
e 257 196 1.0
e 258 147 38.0
e 259 16 1.0
e 260 106 41.0
e 260 190 15.0
e 260 101 36.0
e 260 147 39.0
e 260 89 12.0
e 260 0 32.0
e 260 214 27.0
e 260 15 17.0
e 260 48 32.0
e 260 3 19.0
e 260 177 16.0
e 260 103 30.0
e 260 278 7.0
e 260 246 8.0
e 260 76 7.0
e 260 289 10.0
e 260 43 48.0
e 261 37 19.0
e 262 21 2.0
e 263 49 7.0
e 263 192 2.0
e 263 45 4.0
e 264 146 1.0
e 265 46 4.0
e 265 160 9.0
e 266 189 1.0
e 267 84 44.0
e 267 291 20.0
e 267 55 49.0
e 267 272 7.0
e 267 170 12.0
e 267 97 16.0
e 267 18 9.0
e 267 254 36.0
e 267 57 36.0
e 267 276 28.0
e 267 112 11.0
e 267 262 31.0
e 267 225 48.0
e 267 135 39.0
e 267 246 12.0
e 267 113 9.0
e 267 95 46.0
e 267 65 14.0
e 268 158 1.0
e 269 240 1.0
e 270 163 1.0
e 271 305 1.0
e 272 276 23.0
e 273 286 1.0
e 274 248 1.0
e 275 1 1.0
e 275 281 22.0
e 275 175 9.0
e 275 203 12.0
e 275 97 4.0
e 275 130 37.0
e 275 98 41.0
e 275 8 11.0
e 275 94 38.0
e 275 168 10.0
e 275 69 1.0
e 275 248 20.0
e 275 257 13.0
e 275 212 25.0
e 275 56 24.0
e 275 88 32.0
e 275 99 12.0
e 275 125 48.0
e 275 34 42.0
e 275 32 34.0
e 275 198 40.0
e 275 204 42.0
e 276 11 48.0
e 276 99 48.0
e 276 138 8.0
e 276 274 45.0
e 276 269 30.0
e 276 318 31.0
e 276 101 18.0
e 276 210 10.0
e 276 155 25.0
e 276 129 32.0
e 276 204 40.0
e 276 285 19.0
e 276 222 10.0
e 276 250 43.0
e 276 315 8.0
e 276 248 31.0
e 276 181 10.0
e 276 228 20.0
e 276 174 4.0
e 276 44 34.0
e 276 279 13.0
e 276 251 12.0
e 276 29 26.0
e 277 237 1.0
e 278 94 9.0
e 279 219 2.0
e 280 285 2.0
e 281 259 11.0
e 281 80 18.0
e 281 162 6.0
e 281 65 3.0
e 281 91 30.0
e 281 199 19.0
e 281 101 20.0
e 281 44 10.0
e 281 226 31.0
e 281 102 12.0
e 281 72 25.0
e 281 221 31.0
e 281 181 33.0
e 281 298 4.0
e 281 76 1.0
e 281 173 17.0
e 281 276 35.0
e 281 315 49.0
e 281 306 8.0
e 281 103 45.0
e 281 83 39.0
e 282 205 1.0
e 283 2 1.0
e 284 77 1.0
e 285 75 1.0
e 286 128 16.0
e 287 38 2.0
e 288 45 1.0
e 289 278 1.0
e 290 70 1.0
e 291 81 1.0
e 292 309 1.0
e 293 89 21.0
e 294 43 1.0
e 295 269 1.0
e 296 8 1.0
e 297 54 1.0
e 298 224 5.0
e 298 33 10.0
e 298 234 10.0
e 298 313 10.0
e 298 267 43.0
e 299 65 4.0
e 300 143 1.0
e 301 149 47.0
e 301 252 27.0
e 301 72 42.0
e 301 134 49.0
e 301 190 34.0
e 301 270 39.0
e 301 255 8.0
e 301 80 31.0
e 301 98 39.0
e 301 82 35.0
e 301 103 20.0
e 301 53 29.0
e 301 60 5.0
e 301 208 14.0
e 301 22 25.0
e 301 47 21.0
e 301 251 16.0
e 301 174 23.0
e 301 165 2.0
e 301 102 39.0
e 301 83 20.0
e 301 147 30.0
e 301 54 2.0
e 302 7 1.0
e 303 116 1.0
e 304 196 1.0
e 305 241 1.0
e 306 189 1.0
e 307 198 2.0
e 308 113 1.0
e 309 275 15.0
e 310 147 2.0
e 311 192 1.0
e 312 295 29.0
e 312 210 7.0
e 312 235 26.0
e 312 285 19.0
e 312 58 40.0
e 312 87 20.0
e 312 45 1.0
e 312 190 43.0
e 312 206 48.0
e 312 24 7.0
e 312 156 24.0
e 312 303 19.0
e 312 46 29.0
e 312 25 45.0
e 312 247 4.0
e 312 154 32.0
e 312 230 30.0
e 312 1 18.0
e 312 158 14.0
e 312 94 39.0
e 313 290 1.0
e 314 84 1.0
e 315 203 2.0
e 316 167 2.0
e 317 73 1.0
e 318 69 2.0
e 319 268 2.0
e 319 85 1.0
